c K to QBF translator. (C)Rice University.
c From input file 8-6.lwb
p cnf 389 1262
e 389 1 388 0
a 106 0
e 125 387 20 19 18 17 16 15 14 13 12 11 10 9 8 7 6 5 4 3 2 136 386 0
a 107 108 109 110 0
e 148 385 45 44 43 42 41 40 39 38 37 36 35 34 33 32 31 30 29 28 27 26 25 24 23 22 21 150 158 161 164 167 170 173 176 179 182 185 191 193 195 197 380 381 382 383 384 0
a 111 112 113 114 0
e 206 379 70 69 68 67 66 65 64 63 62 61 60 59 58 57 56 55 54 53 52 51 50 49 48 47 46 208 212 216 220 224 228 231 236 239 242 245 248 251 254 256 258 374 375 376 377 378 0
a 115 116 117 118 0
e 267 373 87 86 85 84 83 82 81 80 79 78 77 76 75 74 73 72 71 270 276 279 282 285 288 291 294 297 300 303 306 308 310 312 314 368 369 370 371 372 0
a 119 120 121 0
e 319 367 97 96 95 94 93 92 91 90 89 88 321 324 327 330 333 336 339 341 342 366 0
a 122 0
e 343 365 101 100 99 98 344 345 347 349 351 352 364 0
a 123 0
e 353 363 103 102 355 357 362 0
a 124 0
e 358 361 105 104 359 360 356 354 350 348 346 340 337 338 334 335 332 331 329 328 326 325 323 322 320 315 316 317 318 313 311 309 307 304 305 301 302 298 299 296 295 293 292 290 289 287 286 284 283 281 280 278 277 272 275 273 274 271 269 268 259 260 261 262 263 264 265 266 257 255 252 253 249 250 246 247 243 244 240 241 238 237 233 234 235 232 230 229 226 227 225 222 223 221 218 219 217 214 215 213 210 211 209 207 198 199 200 201 202 203 204 205 196 194 192 186 190 189 187 188 183 184 180 181 177 178 174 175 171 172 168 169 165 166 163 162 160 159 152 157 153 154 155 156 151 149 137 138 139 140 141 142 143 144 145 146 147 135 129 130 131 132 133 134 128 126 127 0
389  0 
389 -388 -1  0 
388 -389  0 
1 -389  0 
-388 125 387  0 
-125 388  0 
-387 388  0 
-125 -106 -1  0 
106 125  0 
1 125  0 
387 -136 -386  0 
136 -387  0 
386 -387  0 
-136 -106 135  0 
106 136  0 
-135 136  0 
135 -15 -129 -130 -131 -132 -133 -134 -4 -3 -2  0 
15 -135  0 
129 -135  0 
130 -135  0 
131 -135  0 
132 -135  0 
133 -135  0 
134 -135  0 
4 -135  0 
3 -135  0 
2 -135  0 
-129 5 128  0 
-5 129  0 
-128 129  0 
128 -126 -127  0 
126 -128  0 
127 -128  0 
-126 12 19  0 
-12 126  0 
-19 126  0 
-127 6 13  0 
-6 127  0 
-13 127  0 
-130 7 14 20  0 
-7 130  0 
-14 130  0 
-20 130  0 
-131 9 17 18 19 16 20  0 
-9 131  0 
-17 131  0 
-18 131  0 
-19 131  0 
-16 131  0 
-20 131  0 
-132 10 18 19 16 20  0 
-10 132  0 
-18 132  0 
-19 132  0 
-16 132  0 
-20 132  0 
-133 8 16 20  0 
-8 133  0 
-16 133  0 
-20 133  0 
-134 11 19 16 20  0 
-11 134  0 
-19 134  0 
-16 134  0 
-20 134  0 
-386 148 385  0 
-148 386  0 
-385 386  0 
148 -137 -138 -139 -140 -141 -142 -143 -144 -145 -146 -147  0 
137 -148  0 
138 -148  0 
139 -148  0 
140 -148  0 
141 -148  0 
142 -148  0 
143 -148  0 
144 -148  0 
145 -148  0 
146 -148  0 
147 -148  0 
-137 -12 -107 108 -109 110  0 
12 137  0 
107 137  0 
-108 137  0 
109 137  0 
-110 137  0 
-138 -11 107 -108 -109 110  0 
11 138  0 
-107 138  0 
108 138  0 
109 138  0 
-110 138  0 
-139 -10 -107 -108 -109 110  0 
10 139  0 
107 139  0 
108 139  0 
109 139  0 
-110 139  0 
-140 -9 107 108 109 -110  0 
9 140  0 
-107 140  0 
-108 140  0 
-109 140  0 
110 140  0 
-141 -8 -107 108 109 -110  0 
8 141  0 
107 141  0 
-108 141  0 
-109 141  0 
110 141  0 
-142 -7 107 -108 109 -110  0 
7 142  0 
-107 142  0 
108 142  0 
-109 142  0 
110 142  0 
-143 -6 -107 -108 109 -110  0 
6 143  0 
107 143  0 
108 143  0 
-109 143  0 
110 143  0 
-144 -5 107 108 -109 -110  0 
5 144  0 
-107 144  0 
-108 144  0 
109 144  0 
110 144  0 
-145 -4 -107 108 -109 -110  0 
4 145  0 
107 145  0 
-108 145  0 
109 145  0 
110 145  0 
-146 -3 107 -108 -109 -110  0 
3 146  0 
-107 146  0 
108 146  0 
109 146  0 
110 146  0 
-147 -2 -107 -108 -109 -110  0 
2 147  0 
107 147  0 
108 147  0 
109 147  0 
110 147  0 
385 -150 -158 -161 -164 -167 -170 -173 -176 -179 -182 -185 -191 -193 -195 -197 -380 -381 -382 -383 -384  0 
150 -385  0 
158 -385  0 
161 -385  0 
164 -385  0 
167 -385  0 
170 -385  0 
173 -385  0 
176 -385  0 
179 -385  0 
182 -385  0 
185 -385  0 
191 -385  0 
193 -385  0 
195 -385  0 
197 -385  0 
380 -385  0 
381 -385  0 
382 -385  0 
383 -385  0 
384 -385  0 
-150 -16 149  0 
16 150  0 
-149 150  0 
149 12 11 10 9 8 7 6 5 4 3 2  0 
-12 -149  0 
-11 -149  0 
-10 -149  0 
-9 -149  0 
-8 -149  0 
-7 -149  0 
-6 -149  0 
-5 -149  0 
-4 -149  0 
-3 -149  0 
-2 -149  0 
-158 152 157  0 
-152 158  0 
-157 158  0 
-152 -15 151  0 
15 152  0 
-151 152  0 
151 12 11 10 9 8 7 6 5 4 3 2  0 
-12 -151  0 
-11 -151  0 
-10 -151  0 
-9 -151  0 
-8 -151  0 
-7 -151  0 
-6 -151  0 
-5 -151  0 
-4 -151  0 
-3 -151  0 
-2 -151  0 
157 -153 -154 -155 -156  0 
153 -157  0 
154 -157  0 
155 -157  0 
156 -157  0 
-153 23 44  0 
-23 153  0 
-44 153  0 
-154 27 45  0 
-27 154  0 
-45 154  0 
-155 26 44  0 
-26 155  0 
-44 155  0 
-156 25 43  0 
-25 156  0 
-43 156  0 
-161 160 42 43 44 37 45  0 
-160 161  0 
-42 161  0 
-43 161  0 
-44 161  0 
-37 161  0 
-45 161  0 
-160 -14 159  0 
14 160  0 
-159 160  0 
159 12 11 10 9 8 7 6 5 4 3 2  0 
-12 -159  0 
-11 -159  0 
-10 -159  0 
-9 -159  0 
-8 -159  0 
-7 -159  0 
-6 -159  0 
-5 -159  0 
-4 -159  0 
-3 -159  0 
-2 -159  0 
-164 163 29  0 
-163 164  0 
-29 164  0 
-163 -13 162  0 
13 163  0 
-162 163  0 
162 12 11 10 9 8 7 6 5 4 3 2  0 
-12 -162  0 
-11 -162  0 
-10 -162  0 
-9 -162  0 
-8 -162  0 
-7 -162  0 
-6 -162  0 
-5 -162  0 
-4 -162  0 
-3 -162  0 
-2 -162  0 
-167 165 166  0 
-165 167  0 
-166 167  0 
-165 -107 108 -109 110  0 
107 165  0 
-108 165  0 
109 165  0 
-110 165  0 
166 -44 -22  0 
44 -166  0 
22 -166  0 
-170 168 169  0 
-168 170  0 
-169 170  0 
-168 107 -108 -109 110  0 
-107 168  0 
108 168  0 
109 168  0 
-110 168  0 
169 -36 -40 -28 -41  0 
36 -169  0 
40 -169  0 
28 -169  0 
41 -169  0 
-173 171 172  0 
-171 173  0 
-172 173  0 
-171 -107 -108 -109 110  0 
107 171  0 
108 171  0 
109 171  0 
-110 171  0 
172 -35 -39 -40 -28 -41  0 
35 -172  0 
39 -172  0 
40 -172  0 
28 -172  0 
41 -172  0 
-176 174 175  0 
-174 176  0 
-175 176  0 
-174 107 108 109 -110  0 
-107 174  0 
-108 174  0 
-109 174  0 
110 174  0 
175 -34 -38 -39 -40 -28 -41  0 
34 -175  0 
38 -175  0 
39 -175  0 
40 -175  0 
28 -175  0 
41 -175  0 
-179 177 178  0 
-177 179  0 
-178 179  0 
-177 -107 108 109 -110  0 
107 177  0 
-108 177  0 
-109 177  0 
110 177  0 
178 -33 -28 -41  0 
33 -178  0 
28 -178  0 
41 -178  0 
-182 180 181  0 
-180 182  0 
-181 182  0 
-180 107 -108 109 -110  0 
-107 180  0 
108 180  0 
-109 180  0 
110 180  0 
181 -32 -24 -41  0 
32 -181  0 
24 -181  0 
41 -181  0 
-185 183 184  0 
-183 185  0 
-184 185  0 
-183 -107 -108 109 -110  0 
107 183  0 
108 183  0 
-109 183  0 
110 183  0 
184 -31 -40  0 
31 -184  0 
40 -184  0 
-191 186 190  0 
-186 191  0 
-190 191  0 
-186 107 108 -109 -110  0 
-107 186  0 
-108 186  0 
109 186  0 
110 186  0 
190 -30 -189  0 
30 -190  0 
189 -190  0 
-189 187 188  0 
-187 189  0 
-188 189  0 
187 -31 -40  0 
31 -187  0 
40 -187  0 
188 -29 -21  0 
29 -188  0 
21 -188  0 
-193 192 41  0 
-192 193  0 
-41 193  0 
-192 -107 108 -109 -110  0 
107 192  0 
-108 192  0 
109 192  0 
110 192  0 
-195 194 40  0 
-194 195  0 
-40 195  0 
-194 107 -108 -109 -110  0 
-107 194  0 
108 194  0 
109 194  0 
110 194  0 
-197 196 39  0 
-196 197  0 
-39 197  0 
-196 -107 -108 -109 -110  0 
107 196  0 
108 196  0 
109 196  0 
110 196  0 
-380 206 379  0 
-206 380  0 
-379 380  0 
206 -198 -199 -200 -201 -202 -203 -204 -205  0 
198 -206  0 
199 -206  0 
200 -206  0 
201 -206  0 
202 -206  0 
203 -206  0 
204 -206  0 
205 -206  0 
-198 -28 111 112 113 -114  0 
28 198  0 
-111 198  0 
-112 198  0 
-113 198  0 
114 198  0 
-199 -27 -111 112 113 -114  0 
27 199  0 
111 199  0 
-112 199  0 
-113 199  0 
114 199  0 
-200 -26 111 -112 113 -114  0 
26 200  0 
-111 200  0 
112 200  0 
-113 200  0 
114 200  0 
-201 -25 -111 -112 113 -114  0 
25 201  0 
111 201  0 
112 201  0 
-113 201  0 
114 201  0 
-202 -24 111 112 -113 -114  0 
24 202  0 
-111 202  0 
-112 202  0 
113 202  0 
114 202  0 
-203 -23 -111 112 -113 -114  0 
23 203  0 
111 203  0 
-112 203  0 
113 203  0 
114 203  0 
-204 -22 111 -112 -113 -114  0 
22 204  0 
-111 204  0 
112 204  0 
113 204  0 
114 204  0 
-205 -21 -111 -112 -113 -114  0 
21 205  0 
111 205  0 
112 205  0 
113 205  0 
114 205  0 
379 -208 -212 -216 -220 -224 -228 -231 -236 -239 -242 -245 -248 -251 -254 -256 -258 -374 -375 -376 -377 -378  0 
208 -379  0 
212 -379  0 
216 -379  0 
220 -379  0 
224 -379  0 
228 -379  0 
231 -379  0 
236 -379  0 
239 -379  0 
242 -379  0 
245 -379  0 
248 -379  0 
251 -379  0 
254 -379  0 
256 -379  0 
258 -379  0 
374 -379  0 
375 -379  0 
376 -379  0 
377 -379  0 
378 -379  0 
-208 -37 207  0 
37 208  0 
-207 208  0 
207 28 27 26 25 24 23 22 21  0 
-28 -207  0 
-27 -207  0 
-26 -207  0 
-25 -207  0 
-24 -207  0 
-23 -207  0 
-22 -207  0 
-21 -207  0 
-212 210 211 60  0 
-210 212  0 
-211 212  0 
-60 212  0 
-210 -36 209  0 
36 210  0 
-209 210  0 
209 28 27 26 25 24 23 22 21  0 
-28 -209  0 
-27 -209  0 
-26 -209  0 
-25 -209  0 
-24 -209  0 
-23 -209  0 
-22 -209  0 
-21 -209  0 
211 -65 -53 -66  0 
65 -211  0 
53 -211  0 
66 -211  0 
-216 214 215 59  0 
-214 216  0 
-215 216  0 
-59 216  0 
-214 -35 213  0 
35 214  0 
-213 214  0 
213 28 27 26 25 24 23 22 21  0 
-28 -213  0 
-27 -213  0 
-26 -213  0 
-25 -213  0 
-24 -213  0 
-23 -213  0 
-22 -213  0 
-21 -213  0 
215 -64 -65 -53 -66  0 
64 -215  0 
65 -215  0 
53 -215  0 
66 -215  0 
-220 218 219 58  0 
-218 220  0 
-219 220  0 
-58 220  0 
-218 -34 217  0 
34 218  0 
-217 218  0 
217 28 27 26 25 24 23 22 21  0 
-28 -217  0 
-27 -217  0 
-26 -217  0 
-25 -217  0 
-24 -217  0 
-23 -217  0 
-22 -217  0 
-21 -217  0 
219 -63 -64 -65 -53 -66  0 
63 -219  0 
64 -219  0 
65 -219  0 
53 -219  0 
66 -219  0 
-224 222 223 56  0 
-222 224  0 
-223 224  0 
-56 224  0 
-222 -33 221  0 
33 222  0 
-221 222  0 
221 28 27 26 25 24 23 22 21  0 
-28 -221  0 
-27 -221  0 
-26 -221  0 
-25 -221  0 
-24 -221  0 
-23 -221  0 
-22 -221  0 
-21 -221  0 
223 -53 -66  0 
53 -223  0 
66 -223  0 
-228 226 227 55  0 
-226 228  0 
-227 228  0 
-55 228  0 
-226 -32 225  0 
32 226  0 
-225 226  0 
225 28 27 26 25 24 23 22 21  0 
-28 -225  0 
-27 -225  0 
-26 -225  0 
-25 -225  0 
-24 -225  0 
-23 -225  0 
-22 -225  0 
-21 -225  0 
227 -51 -66  0 
51 -227  0 
66 -227  0 
-231 230 65 62  0 
-230 231  0 
-65 231  0 
-62 231  0 
-230 -31 229  0 
31 230  0 
-229 230  0 
229 28 27 26 25 24 23 22 21  0 
-28 -229  0 
-27 -229  0 
-26 -229  0 
-25 -229  0 
-24 -229  0 
-23 -229  0 
-22 -229  0 
-21 -229  0 
-236 233 61 234 235  0 
-233 236  0 
-61 236  0 
-234 236  0 
-235 236  0 
-233 -30 232  0 
30 233  0 
-232 233  0 
232 28 27 26 25 24 23 22 21  0 
-28 -232  0 
-27 -232  0 
-26 -232  0 
-25 -232  0 
-24 -232  0 
-23 -232  0 
-22 -232  0 
-21 -232  0 
234 -57 -65  0 
57 -234  0 
65 -234  0 
235 -54 -46  0 
54 -235  0 
46 -235  0 
-239 238 52 69  0 
-238 239  0 
-52 239  0 
-69 239  0 
-238 -29 237  0 
29 238  0 
-237 238  0 
237 28 27 26 25 24 23 22 21  0 
-28 -237  0 
-27 -237  0 
-26 -237  0 
-25 -237  0 
-24 -237  0 
-23 -237  0 
-22 -237  0 
-21 -237  0 
-242 240 241  0 
-240 242  0 
-241 242  0 
-240 -111 112 113 -114  0 
111 240  0 
-112 240  0 
-113 240  0 
114 240  0 
241 -70 -49  0 
70 -241  0 
49 -241  0 
-245 243 244  0 
-243 245  0 
-244 245  0 
-243 111 -112 113 -114  0 
-111 243  0 
112 243  0 
-113 243  0 
114 243  0 
244 -69 -48  0 
69 -244  0 
48 -244  0 
-248 246 247  0 
-246 248  0 
-247 248  0 
-246 -111 -112 113 -114  0 
111 246  0 
112 246  0 
-113 246  0 
114 246  0 
247 -68 -47  0 
68 -247  0 
47 -247  0 
-251 249 250  0 
-249 251  0 
-250 251  0 
-249 111 112 -113 -114  0 
-111 249  0 
-112 249  0 
113 249  0 
114 249  0 
250 -63 -64 -65 -53 -66  0 
63 -250  0 
64 -250  0 
65 -250  0 
53 -250  0 
66 -250  0 
-254 252 253  0 
-252 254  0 
-253 254  0 
-252 -111 112 -113 -114  0 
111 252  0 
-112 252  0 
113 252  0 
114 252  0 
253 -57 -65  0 
57 -253  0 
65 -253  0 
-256 255 65  0 
-255 256  0 
-65 256  0 
-255 111 -112 -113 -114  0 
-111 255  0 
112 255  0 
113 255  0 
114 255  0 
-258 257 50  0 
-257 258  0 
-50 258  0 
-257 -111 -112 -113 -114  0 
111 257  0 
112 257  0 
113 257  0 
114 257  0 
-374 267 373  0 
-267 374  0 
-373 374  0 
267 -259 -260 -261 -262 -263 -264 -265 -266  0 
259 -267  0 
260 -267  0 
261 -267  0 
262 -267  0 
263 -267  0 
264 -267  0 
265 -267  0 
266 -267  0 
-259 -53 115 116 117 -118  0 
53 259  0 
-115 259  0 
-116 259  0 
-117 259  0 
118 259  0 
-260 -52 -115 116 117 -118  0 
52 260  0 
115 260  0 
-116 260  0 
-117 260  0 
118 260  0 
-261 -51 115 -116 117 -118  0 
51 261  0 
-115 261  0 
116 261  0 
-117 261  0 
118 261  0 
-262 -50 -115 -116 117 -118  0 
50 262  0 
115 262  0 
116 262  0 
-117 262  0 
118 262  0 
-263 -49 115 116 -117 -118  0 
49 263  0 
-115 263  0 
-116 263  0 
117 263  0 
118 263  0 
-264 -48 -115 116 -117 -118  0 
48 264  0 
115 264  0 
-116 264  0 
117 264  0 
118 264  0 
-265 -47 115 -116 -117 -118  0 
47 265  0 
-115 265  0 
116 265  0 
117 265  0 
118 265  0 
-266 -46 -115 -116 -117 -118  0 
46 266  0 
115 266  0 
116 266  0 
117 266  0 
118 266  0 
373 -270 -276 -279 -282 -285 -288 -291 -294 -297 -300 -303 -306 -308 -310 -312 -314 -368 -369 -370 -371 -372  0 
270 -373  0 
276 -373  0 
279 -373  0 
282 -373  0 
285 -373  0 
288 -373  0 
291 -373  0 
294 -373  0 
297 -373  0 
300 -373  0 
303 -373  0 
306 -373  0 
308 -373  0 
310 -373  0 
312 -373  0 
314 -373  0 
368 -373  0 
369 -373  0 
370 -373  0 
371 -373  0 
372 -373  0 
-270 269 86  0 
-269 270  0 
-86 270  0 
-269 -62 268  0 
62 269  0 
-268 269  0 
268 53 52 51 50 49 48 47 46  0 
-53 -268  0 
-52 -268  0 
-51 -268  0 
-50 -268  0 
-49 -268  0 
-48 -268  0 
-47 -268  0 
-46 -268  0 
-276 272 275  0 
-272 276  0 
-275 276  0 
-272 -61 271  0 
61 272  0 
-271 272  0 
271 53 52 51 50 49 48 47 46  0 
-53 -271  0 
-52 -271  0 
-51 -271  0 
-50 -271  0 
-49 -271  0 
-48 -271  0 
-47 -271  0 
-46 -271  0 
275 -273 -274  0 
273 -275  0 
274 -275  0 
-273 73 86  0 
-73 273  0 
-86 273  0 
-274 72 75  0 
-72 274  0 
-75 274  0 
-279 278 86 79 87  0 
-278 279  0 
-86 279  0 
-79 279  0 
-87 279  0 
-278 -60 277  0 
60 278  0 
-277 278  0 
277 53 52 51 50 49 48 47 46  0 
-53 -277  0 
-52 -277  0 
-51 -277  0 
-50 -277  0 
-49 -277  0 
-48 -277  0 
-47 -277  0 
-46 -277  0 
-282 281 85 86 79 87  0 
-281 282  0 
-85 282  0 
-86 282  0 
-79 282  0 
-87 282  0 
-281 -59 280  0 
59 281  0 
-280 281  0 
280 53 52 51 50 49 48 47 46  0 
-53 -280  0 
-52 -280  0 
-51 -280  0 
-50 -280  0 
-49 -280  0 
-48 -280  0 
-47 -280  0 
-46 -280  0 
-285 284 84 85 86 79 87  0 
-284 285  0 
-84 285  0 
-85 285  0 
-86 285  0 
-79 285  0 
-87 285  0 
-284 -58 283  0 
58 284  0 
-283 284  0 
283 53 52 51 50 49 48 47 46  0 
-53 -283  0 
-52 -283  0 
-51 -283  0 
-50 -283  0 
-49 -283  0 
-48 -283  0 
-47 -283  0 
-46 -283  0 
-288 287 82 78  0 
-287 288  0 
-82 288  0 
-78 288  0 
-287 -57 286  0 
57 287  0 
-286 287  0 
286 53 52 51 50 49 48 47 46  0 
-53 -286  0 
-52 -286  0 
-51 -286  0 
-50 -286  0 
-49 -286  0 
-48 -286  0 
-47 -286  0 
-46 -286  0 
-291 290 79 87  0 
-290 291  0 
-79 291  0 
-87 291  0 
-290 -56 289  0 
56 290  0 
-289 290  0 
289 53 52 51 50 49 48 47 46  0 
-53 -289  0 
-52 -289  0 
-51 -289  0 
-50 -289  0 
-49 -289  0 
-48 -289  0 
-47 -289  0 
-46 -289  0 
-294 293 77 87  0 
-293 294  0 
-77 294  0 
-87 294  0 
-293 -55 292  0 
55 293  0 
-292 293  0 
292 53 52 51 50 49 48 47 46  0 
-53 -292  0 
-52 -292  0 
-51 -292  0 
-50 -292  0 
-49 -292  0 
-48 -292  0 
-47 -292  0 
-46 -292  0 
-297 296 73 86  0 
-296 297  0 
-73 297  0 
-86 297  0 
-296 -54 295  0 
54 296  0 
-295 296  0 
295 53 52 51 50 49 48 47 46  0 
-53 -295  0 
-52 -295  0 
-51 -295  0 
-50 -295  0 
-49 -295  0 
-48 -295  0 
-47 -295  0 
-46 -295  0 
-300 298 299  0 
-298 300  0 
-299 300  0 
-298 -115 116 117 -118  0 
115 298  0 
-116 298  0 
-117 298  0 
118 298  0 
299 -86 -71  0 
86 -299  0 
71 -299  0 
-303 301 302  0 
-301 303  0 
-302 303  0 
-301 115 -116 117 -118  0 
-115 301  0 
116 301  0 
-117 301  0 
118 301  0 
302 -80 -81 -82 -74 -83  0 
80 -302  0 
81 -302  0 
82 -302  0 
74 -302  0 
83 -302  0 
-306 304 305  0 
-304 306  0 
-305 306  0 
-304 -115 -116 117 -118  0 
115 304  0 
116 304  0 
-117 304  0 
118 304  0 
305 -76 -82  0 
76 -305  0 
82 -305  0 
-308 307 83  0 
-307 308  0 
-83 308  0 
-307 115 116 -117 -118  0 
-115 307  0 
-116 307  0 
117 307  0 
118 307  0 
-310 309 82  0 
-309 310  0 
-82 310  0 
-309 -115 116 -117 -118  0 
115 309  0 
-116 309  0 
117 309  0 
118 309  0 
-312 311 81  0 
-311 312  0 
-81 312  0 
-311 115 -116 -117 -118  0 
-115 311  0 
116 311  0 
117 311  0 
118 311  0 
-314 313 72  0 
-313 314  0 
-72 314  0 
-313 -115 -116 -117 -118  0 
115 313  0 
116 313  0 
117 313  0 
118 313  0 
-368 319 367  0 
-319 368  0 
-367 368  0 
319 -315 -316 -317 -318  0 
315 -319  0 
316 -319  0 
317 -319  0 
318 -319  0 
-315 -74 119 120 -121  0 
74 315  0 
-119 315  0 
-120 315  0 
121 315  0 
-316 -73 -119 120 -121  0 
73 316  0 
119 316  0 
-120 316  0 
121 316  0 
-317 -72 119 -120 -121  0 
72 317  0 
-119 317  0 
120 317  0 
121 317  0 
-318 -71 -119 -120 -121  0 
71 318  0 
119 318  0 
120 318  0 
121 318  0 
367 -321 -324 -327 -330 -333 -336 -339 -341 -342 -366  0 
321 -367  0 
324 -367  0 
327 -367  0 
330 -367  0 
333 -367  0 
336 -367  0 
339 -367  0 
341 -367  0 
342 -367  0 
366 -367  0 
-321 -79 320  0 
79 321  0 
-320 321  0 
320 74 73 72 71  0 
-74 -320  0 
-73 -320  0 
-72 -320  0 
-71 -320  0 
-324 323 96  0 
-323 324  0 
-96 324  0 
-323 -78 322  0 
78 323  0 
-322 323  0 
322 74 73 72 71  0 
-74 -322  0 
-73 -322  0 
-72 -322  0 
-71 -322  0 
-327 326 94 95 96 92 97  0 
-326 327  0 
-94 327  0 
-95 327  0 
-96 327  0 
-92 327  0 
-97 327  0 
-326 -77 325  0 
77 326  0 
-325 326  0 
325 74 73 72 71  0 
-74 -325  0 
-73 -325  0 
-72 -325  0 
-71 -325  0 
-330 329 93 91  0 
-329 330  0 
-93 330  0 
-91 330  0 
-329 -76 328  0 
76 329  0 
-328 329  0 
328 74 73 72 71  0 
-74 -328  0 
-73 -328  0 
-72 -328  0 
-71 -328  0 
-333 332 89  0 
-332 333  0 
-89 333  0 
-332 -75 331  0 
75 332  0 
-331 332  0 
331 74 73 72 71  0 
-74 -331  0 
-73 -331  0 
-72 -331  0 
-71 -331  0 
-336 334 335  0 
-334 336  0 
-335 336  0 
-334 -119 120 -121  0 
119 334  0 
-120 334  0 
121 334  0 
335 -96 -88  0 
96 -335  0 
88 -335  0 
-339 337 338  0 
-337 339  0 
-338 339  0 
-337 119 -120 -121  0 
-119 337  0 
120 337  0 
121 337  0 
338 -90 -93  0 
90 -338  0 
93 -338  0 
-341 340 93  0 
-340 341  0 
-93 341  0 
-340 -119 -120 -121  0 
119 340  0 
120 340  0 
121 340  0 
-342 -93 -96  0 
93 342  0 
96 342  0 
-366 343 365  0 
-343 366  0 
-365 366  0 
-343 -122 -88  0 
122 343  0 
88 343  0 
365 -344 -345 -347 -349 -351 -352 -364  0 
344 -365  0 
345 -365  0 
347 -365  0 
349 -365  0 
351 -365  0 
352 -365  0 
364 -365  0 
-344 -122 100  0 
122 344  0 
-100 344  0 
-345 -92 -88  0 
92 345  0 
88 345  0 
-347 346 101  0 
-346 347  0 
-101 347  0 
-346 -91 -88  0 
91 346  0 
88 346  0 
-349 348 100 99  0 
-348 349  0 
-100 349  0 
-99 349  0 
-348 -90 -88  0 
90 348  0 
88 348  0 
-351 350 98 101  0 
-350 351  0 
-98 351  0 
-101 351  0 
-350 -89 -88  0 
89 350  0 
88 350  0 
-352 -100 -101  0 
100 352  0 
101 352  0 
-364 353 363  0 
-353 364  0 
-363 364  0 
-353 -123 -98  0 
123 353  0 
98 353  0 
363 -355 -357 -362  0 
355 -363  0 
357 -363  0 
362 -363  0 
-355 354 103  0 
-354 355  0 
-103 355  0 
-354 -99 -98  0 
99 354  0 
98 354  0 
-357 -123 356  0 
123 357  0 
-356 357  0 
356 -103 -102  0 
103 -356  0 
102 -356  0 
-362 358 361  0 
-358 362  0 
-361 362  0 
-358 -124 -102  0 
124 358  0 
102 358  0 
361 -359 -360  0 
359 -361  0 
360 -361  0 
-359 -124 104  0 
124 359  0 
-104 359  0 
-360 -104 -105  0 
104 360  0 
105 360  0 
-369 -83 -87  0 
83 369  0 
87 369  0 
-370 -82 -86  0 
82 370  0 
86 370  0 
-371 -81 -85  0 
81 371  0 
85 371  0 
-372 -80 -84  0 
80 372  0 
84 372  0 
-375 -66 -70  0 
66 375  0 
70 375  0 
-376 -65 -69  0 
65 376  0 
69 376  0 
-377 -64 -68  0 
64 377  0 
68 377  0 
-378 -63 -67  0 
63 378  0 
67 378  0 
-381 -41 -45  0 
41 381  0 
45 381  0 
-382 -40 -44  0 
40 382  0 
44 382  0 
-383 -39 -43  0 
39 383  0 
43 383  0 
-384 -38 -42  0 
38 384  0 
42 384  0 
